NAME: random-43-4278
TYPE: TSP
COMMENT: size=43 seed=4278
DIMENSION: 88
EDGE_WEIGHT_TYPE: EUC_2D
NODE_COORD_SECTION
+0 346 608
-0 346 608
+1 27 24
-1 185 196
+2 412 396
-2 240 236
+3 338 567
-3 870 732
+4 369 958
-4 440 741
+5 692 96
-5 309 586
+6 187 36
-6 251 625
+7 835 777
-7 548 408
+8 402 885
-8 424 586
+9 380 377
-9 329 624
+10 594 475
-10 377 774
+11 641 540
-11 190 50
+12 530 944
-12 765 713
+13 825 560
-13 912 556
+14 65 8
-14 157 461
+15 826 922
-15 46 164
+16 338 23
-16 320 388
+17 446 569
-17 970 697
+18 835 491
-18 368 350
+19 339 550
-19 871 764
+20 943 340
-20 513 863
+21 768 839
-21 787 671
+22 453 597
-22 205 624
+23 243 31
-23 440 855
+24 34 133
-24 420 313
+25 472 719
-25 622 170
+26 7 609
-26 702 139
+27 690 908
-27 13 171
+28 426 580
-28 99 350
+29 575 152
-29 225 157
+30 597 268
-30 368 740
+31 52 812
-31 650 518
+32 537 810
-32 158 987
+33 775 498
-33 676 512
+34 571 679
-34 921 279
+35 992 729
-35 951 295
+36 966 664
-36 838 610
+37 664 85
-37 921 427
+38 677 144
-38 57 270
+39 668 738
-39 217 583
+40 374 82
-40 759 817
+41 877 653
-41 32 903
+42 457 967
-42 861 696
+43 996 793
-43 944 406
PRECEDENCE_SECTION
+0 -0
+1 -1
+2 -2
+3 -3
+4 -4
+5 -5
+6 -6
+7 -7
+8 -8
+9 -9
+10 -10
+11 -11
+12 -12
+13 -13
+14 -14
+15 -15
+16 -16
+17 -17
+18 -18
+19 -19
+20 -20
+21 -21
+22 -22
+23 -23
+24 -24
+25 -25
+26 -26
+27 -27
+28 -28
+29 -29
+30 -30
+31 -31
+32 -32
+33 -33
+34 -34
+35 -35
+36 -36
+37 -37
+38 -38
+39 -39
+40 -40
+41 -41
+42 -42
+43 -43
EOF
